(set-logic QF_S)
(declare-fun var0 () String)
(declare-fun var1 () String)
(declare-fun var2 () String)
(declare-fun var3 () String)
(declare-fun var4 () String)
(declare-fun var5 () String)
(declare-fun var6 () String)
(declare-fun var7 () String)
(declare-fun var8 () String)
(declare-fun var9 () String)
(declare-fun var10 () String)
(declare-fun var11 () String)
(declare-fun var12 () String)
(declare-fun var13 () String)
(declare-fun var14 () String)
(declare-fun var15 () String)
(declare-fun var16 () String)
(declare-fun var17 () String)
(declare-fun var18 () String)
(declare-fun var19 () String)
(declare-fun var20 () String)
(declare-fun var21 () String)
(declare-fun var22 () String)
(declare-fun var23 () String)
(declare-fun var24 () String)
(declare-fun var25 () String)
(declare-fun var26 () String)
(declare-fun var27 () String)
(declare-fun var28 () String)
(declare-fun var29 () String)
(declare-fun var30 () String)
(declare-fun var31 () String)
(declare-fun var32 () String)
(declare-fun var33 () String)
(declare-fun var34 () String)
(declare-fun var35 () String)
(declare-fun var36 () String)
(declare-fun var37 () String)
(declare-fun var38 () String)
(declare-fun var39 () String)
(declare-fun var40 () String)
(declare-fun var41 () String)
(declare-fun var42 () String)
(declare-fun var43 () String)
(declare-fun var44 () String)
(declare-fun var45 () String)
(declare-fun var46 () String)
(declare-fun var47 () String)
(declare-fun var48 () String)
(declare-fun var49 () String)
(declare-fun var50 () String)
(declare-fun var51 () String)
(declare-fun var52 () String)
(declare-fun var53 () String)
(declare-fun var54 () String)
(declare-fun var55 () String)
(declare-fun var56 () String)
(declare-fun var57 () String)
(declare-fun var58 () String)
(declare-fun var59 () String)
(declare-fun var60 () String)
(assert (= var0 (Concat var1 var2)))
(assert (= var2 (Concat var3 var4)))
(assert (= var4 (Concat var5 var6)))
(assert (= var6 (Concat var7 var8)))
(assert (= var8 (Concat var9 var10)))
(assert (= var10 (Concat var11 var12)))
(assert (= var12 (Concat var13 var14)))
(assert (= var14 (Concat var15 var16)))
(assert (= var16 (Concat var17 var18)))
(assert (= var18 (Concat var19 var20)))
(assert (= var20 (Concat var21 var22)))
(assert (= var22 (Concat var23 var24)))
(assert (= var24 (Concat var25 var26)))
(assert (= var26 (Concat var27 var28)))
(assert (= var28 (Concat var29 var30)))
(assert (= var30 (Concat var31 var32)))
(assert (= var32 (Concat var33 var34)))
(assert (= var34 (Concat var35 var36)))
(assert (= var36 (Concat var37 var38)))
(assert (= var38 (Concat var39 var40)))
(assert (= var40 (Concat var41 var42)))
(assert (= var42 (Concat var43 var44)))
(assert (= var44 (Concat var45 var46)))
(assert (= var46 (Concat var47 var48)))
(assert (= var48 (Concat var49 var50)))
(assert (= var50 (Concat var51 var52)))
(assert (= var52 (Concat var53 var54)))
(assert (= var54 (Concat var55 var56)))
(assert (= var56 (Concat var57 var58)))
(assert (= var58 (Concat var59 var60)))
(assert (= var0 "solution"))
(assert (= "G" (CharAt var28 476)))
(assert (= "K" (CharAt var6 912)))
(assert (= "a" (CharAt var50 284)))
(assert (= "," (CharAt var39 619)))
(assert (= "j" (CharAt var25 346)))
(assert (= "T" (CharAt var4 59)))
(assert (= "d" (CharAt var46 42)))
(assert (= "7" (CharAt var50 912)))
(assert (= "e" (CharAt var43 742)))
(assert (= "\\" (CharAt var58 163)))
(assert (= "-" (CharAt var7 637)))
(assert (= "J" (CharAt var28 726)))
(assert (= "H" (CharAt var12 952)))
(assert (= "+" (CharAt var13 716)))
(assert (= "+" (CharAt var12 663)))
(assert (= "$" (CharAt var59 89)))
(assert (= "]" (CharAt var0 177)))
(assert (= "1" (CharAt var57 574)))
(assert (= "?" (CharAt var53 335)))
(assert (= "v" (CharAt var48 506)))
(assert (= "w" (CharAt var3 566)))
(assert (= "^" (CharAt var26 778)))
(assert (= "N" (CharAt var48 314)))
(assert (= "v" (CharAt var59 952)))
(assert (= "M" (CharAt var19 999)))
(assert (= "<" (CharAt var21 37)))
(assert (= "d" (CharAt var19 200)))
(assert (= "_" (CharAt var25 426)))
(assert (= "P" (CharAt var44 932)))
(assert (= "u" (CharAt var18 471)))
(assert (= "6" (CharAt var42 408)))
(assert (= "8" (CharAt var40 340)))
(assert (= "W" (CharAt var23 990)))
(assert (= "n" (CharAt var20 182)))
(assert (= "G" (CharAt var50 434)))
(assert (= "M" (CharAt var18 462)))
(assert (= "U" (CharAt var26 582)))
(assert (= "d" (CharAt var0 296)))
(assert (= "7" (CharAt var44 37)))
(assert (= "0" (CharAt var53 974)))
(assert (= "l" (CharAt var5 878)))
(assert (= "x" (CharAt var24 33)))
(assert (= "*" (CharAt var36 565)))
(assert (= "r" (CharAt var19 381)))
(assert (= "g" (CharAt var53 218)))
(assert (= "`" (CharAt var26 115)))
(assert (= "O" (CharAt var49 791)))
(assert (= "i" (CharAt var2 157)))
(assert (= "L" (CharAt var8 489)))
(assert (= "_" (CharAt var6 428)))
(assert (= "0" (CharAt var24 583)))
(assert (= "[" (CharAt var60 783)))
(assert (= "0" (CharAt var50 3)))
(assert (= "|" (CharAt var48 440)))
(assert (= "m" (CharAt var56 785)))
(assert (= "~" (CharAt var58 761)))
(assert (= "=" (CharAt var50 780)))
(assert (= "9" (CharAt var50 336)))
(assert (= "g" (CharAt var42 470)))
(assert (= "N" (CharAt var32 821)))
(assert (= "g" (CharAt var48 683)))
(assert (= "r" (CharAt var42 638)))
(assert (= "u" (CharAt var49 930)))
(assert (= "p" (CharAt var40 700)))
(assert (= "Y" (CharAt var14 903)))
(assert (= "r" (CharAt var13 636)))
(assert (= "\"" (CharAt var12 879)))
(assert (= "q" (CharAt var39 775)))
(assert (= "," (CharAt var13 922)))
(assert (= "!" (CharAt var13 410)))
(assert (= "g" (CharAt var17 21)))
(assert (= "6" (CharAt var55 401)))
(assert (= "," (CharAt var34 52)))
(assert (= "r" (CharAt var33 886)))
(assert (= "%" (CharAt var45 495)))
(assert (= "2" (CharAt var21 533)))
(assert (= "o" (CharAt var52 718)))
(assert (= "$" (CharAt var36 708)))
(assert (= "R" (CharAt var17 469)))
(assert (= "\"" (CharAt var6 895)))
(assert (= "j" (CharAt var24 958)))
(assert (= "0" (CharAt var57 648)))
(assert (= "o" (CharAt var34 1)))
(assert (= "/" (CharAt var4 131)))
(assert (= "2" (CharAt var31 145)))
(assert (= "u" (CharAt var14 633)))
(assert (= "0" (CharAt var48 12)))
(assert (= "x" (CharAt var44 938)))
(assert (= "k" (CharAt var46 21)))
(assert (= "=" (CharAt var26 542)))
(assert (= "<" (CharAt var5 284)))
(assert (= "h" (CharAt var28 209)))
(assert (= "/" (CharAt var1 643)))
(assert (= "#" (CharAt var57 869)))
(assert (= "d" (CharAt var51 794)))
(assert (= "V" (CharAt var6 881)))
(assert (= "N" (CharAt var19 497)))
(assert (= "|" (CharAt var50 456)))
(assert (= "N" (CharAt var34 607)))
(assert (= "A" (CharAt var50 929)))
(assert (= "X" (CharAt var48 850)))
(assert (= "9" (CharAt var21 390)))
(assert (= "\\" (CharAt var32 137)))
(assert (= "z" (CharAt var3 606)))
(assert (= "%" (CharAt var37 695)))
(assert (= "%" (CharAt var30 117)))
(assert (= "T" (CharAt var18 848)))
(assert (= "V" (CharAt var52 861)))
(assert (= "u" (CharAt var59 278)))
(assert (= "q" (CharAt var54 248)))
(assert (= "," (CharAt var37 450)))
(assert (= "F" (CharAt var42 248)))
(assert (= ">" (CharAt var1 756)))
(assert (= "%" (CharAt var7 258)))
(assert (= "6" (CharAt var59 345)))
(assert (= "2" (CharAt var27 110)))
(assert (= "/" (CharAt var3 633)))
(assert (= "r" (CharAt var0 846)))
(assert (= "g" (CharAt var34 935)))
(assert (= "0" (CharAt var15 211)))
(assert (= "D" (CharAt var35 446)))
(assert (= "y" (CharAt var48 170)))
(assert (= "j" (CharAt var14 48)))
(assert (= "M" (CharAt var34 3)))
(assert (= "b" (CharAt var42 579)))
(assert (= "q" (CharAt var31 672)))
(assert (= "$" (CharAt var47 391)))
(assert (= "D" (CharAt var57 327)))
(assert (= "n" (CharAt var58 65)))
(assert (= "|" (CharAt var23 441)))
(assert (= "I" (CharAt var29 869)))
(assert (= "'" (CharAt var45 865)))
(assert (= "@" (CharAt var40 367)))
(assert (= "Y" (CharAt var3 520)))
(assert (= "t" (CharAt var0 680)))
(assert (= "~" (CharAt var27 389)))
(assert (= "y" (CharAt var44 878)))
(assert (= "g" (CharAt var5 249)))
(assert (= "/" (CharAt var27 990)))
(assert (= "i" (CharAt var19 711)))
(assert (= "0" (CharAt var0 883)))
(assert (= "u" (CharAt var20 286)))
(assert (= "A" (CharAt var38 517)))
(assert (= "I" (CharAt var50 85)))
(assert (= "S" (CharAt var46 918)))
(assert (= "g" (CharAt var7 993)))
(assert (= "X" (CharAt var35 127)))
(assert (= "l" (CharAt var18 769)))
(assert (= "z" (CharAt var14 29)))
(assert (= "c" (CharAt var9 821)))
(assert (= "3" (CharAt var59 542)))
(assert (= "," (CharAt var57 562)))
(assert (= "f" (CharAt var7 526)))
(assert (= "W" (CharAt var34 887)))
(assert (= "!" (CharAt var24 984)))
(assert (= "w" (CharAt var13 652)))
(assert (= "*" (CharAt var58 807)))
(assert (= "&" (CharAt var36 270)))
(assert (= "l" (CharAt var3 231)))
(assert (= "I" (CharAt var21 945)))
(assert (= "^" (CharAt var5 300)))
(assert (= "T" (CharAt var53 830)))
(assert (= "O" (CharAt var42 352)))
(assert (= "t" (CharAt var21 898)))
(assert (= "-" (CharAt var43 576)))
(assert (= "v" (CharAt var35 908)))
(assert (= "_" (CharAt var23 741)))
(assert (= "b" (CharAt var20 383)))
(assert (= "~" (CharAt var4 451)))
(assert (= "t" (CharAt var5 436)))
(assert (= "l" (CharAt var39 392)))
(assert (= "8" (CharAt var7 512)))
(assert (= "M" (CharAt var23 418)))
(assert (= "`" (CharAt var26 913)))
(assert (= "i" (CharAt var47 218)))
(assert (= "J" (CharAt var56 210)))
(assert (= "e" (CharAt var17 832)))
(assert (= "%" (CharAt var23 787)))
(assert (= "O" (CharAt var3 320)))
(assert (= "_" (CharAt var41 854)))
(assert (= "^" (CharAt var11 84)))
(assert (= "{" (CharAt var4 725)))
(assert (= "." (CharAt var33 634)))
(assert (= "z" (CharAt var42 79)))
(assert (= "E" (CharAt var20 74)))
(assert (= "l" (CharAt var0 870)))
(assert (= "s" (CharAt var13 173)))
(assert (= "*" (CharAt var34 568)))
(assert (= "f" (CharAt var59 203)))
(assert (= "s" (CharAt var17 628)))
(assert (= "]" (CharAt var51 116)))
(assert (= "C" (CharAt var4 267)))
(assert (= "s" (CharAt var21 299)))
(assert (= "k" (CharAt var37 102)))
(assert (= "t" (CharAt var43 729)))
(assert (= "J" (CharAt var6 900)))
(assert (= "b" (CharAt var23 815)))
(assert (= "J" (CharAt var55 250)))
(assert (= "Y" (CharAt var28 227)))
(assert (= "7" (CharAt var2 352)))
(assert (= "X" (CharAt var13 689)))
(assert (= "\"" (CharAt var18 171)))
(assert (= "7" (CharAt var19 898)))
(assert (= "]" (CharAt var4 732)))
(assert (= "c" (CharAt var36 620)))
(assert (= "\"" (CharAt var41 372)))
(assert (= "E" (CharAt var25 698)))
(assert (= "q" (CharAt var38 920)))
(assert (= "E" (CharAt var32 738)))
(assert (= "Z" (CharAt var14 854)))
(assert (= "p" (CharAt var14 216)))
(assert (= "J" (CharAt var30 75)))
(assert (= "@" (CharAt var20 541)))
(assert (= "2" (CharAt var32 846)))
(assert (= ">" (CharAt var30 3)))
(assert (= "`" (CharAt var40 737)))
(assert (= "3" (CharAt var23 563)))
(assert (= "d" (CharAt var43 46)))
(assert (= "F" (CharAt var25 507)))
(assert (= "U" (CharAt var2 341)))
(assert (= "[" (CharAt var23 105)))
(assert (= "#" (CharAt var33 450)))
(assert (= "T" (CharAt var7 655)))
(assert (= "V" (CharAt var17 210)))
(assert (= "~" (CharAt var49 590)))
(assert (= "6" (CharAt var12 516)))
(assert (= "u" (CharAt var26 308)))
(assert (= "?" (CharAt var37 88)))
(assert (= "?" (CharAt var22 645)))
(assert (= "2" (CharAt var31 657)))
(assert (= "a" (CharAt var40 174)))
(assert (= "2" (CharAt var32 415)))
(assert (= "x" (CharAt var45 218)))
(assert (= "(" (CharAt var13 250)))
(assert (= "\"" (CharAt var40 859)))
(assert (= "#" (CharAt var53 295)))
(assert (= ")" (CharAt var47 995)))
(assert (= "0" (CharAt var18 591)))
(assert (= "S" (CharAt var19 406)))
(assert (= "#" (CharAt var1 993)))
(assert (= "p" (CharAt var53 387)))
(assert (= "/" (CharAt var12 495)))
(assert (= "3" (CharAt var8 215)))
(assert (= "'" (CharAt var6 526)))
(assert (= "V" (CharAt var20 871)))
(assert (= "q" (CharAt var39 93)))
(assert (= "h" (CharAt var30 436)))
(assert (= "T" (CharAt var25 892)))
(assert (= "[" (CharAt var24 69)))
(assert (= "U" (CharAt var33 704)))
(assert (= "2" (CharAt var22 507)))
(assert (= "5" (CharAt var56 518)))
(assert (= "6" (CharAt var48 978)))
(assert (= "$" (CharAt var41 339)))
(assert (= "X" (CharAt var22 760)))
(assert (= "%" (CharAt var11 176)))
(assert (= "Y" (CharAt var43 158)))
(assert (= "1" (CharAt var29 69)))
(assert (= "8" (CharAt var58 37)))
(assert (= "W" (CharAt var43 455)))
(assert (= "T" (CharAt var57 789)))
(assert (= "K" (CharAt var23 240)))
(assert (= "\"" (CharAt var42 145)))
(assert (= "a" (CharAt var0 610)))
(assert (= "7" (CharAt var39 804)))
(assert (= "G" (CharAt var14 531)))
(assert (= "9" (CharAt var55 302)))
(assert (= "~" (CharAt var5 239)))
(assert (= "Q" (CharAt var50 669)))
(assert (= "G" (CharAt var15 129)))
(assert (= "*" (CharAt var13 455)))
(assert (= "e" (CharAt var16 826)))
(assert (= ":" (CharAt var9 141)))
(assert (= "0" (CharAt var21 838)))
(assert (= "#" (CharAt var8 559)))
(assert (= "J" (CharAt var51 994)))
(assert (= ")" (CharAt var23 794)))
(assert (= "9" (CharAt var12 936)))
(assert (= "H" (CharAt var6 889)))
(assert (= "J" (CharAt var17 992)))
(assert (= ">" (CharAt var11 948)))
(assert (= "$" (CharAt var6 951)))
(assert (= "S" (CharAt var40 260)))
(assert (= "r" (CharAt var38 685)))
(assert (= "!" (CharAt var6 925)))
(assert (= "/" (CharAt var40 966)))
(assert (= "\\" (CharAt var23 745)))
(assert (= "q" (CharAt var52 574)))
(assert (= "w" (CharAt var26 228)))
(assert (= "1" (CharAt var16 982)))
(assert (= "(" (CharAt var30 872)))
(assert (= "U" (CharAt var15 99)))
(assert (= "6" (CharAt var36 518)))
(assert (= "_" (CharAt var57 425)))
(assert (= "i" (CharAt var59 431)))
(assert (= "h" (CharAt var16 587)))
(assert (= "N" (CharAt var58 261)))
(assert (= "u" (CharAt var13 637)))
(assert (= "(" (CharAt var56 57)))
(assert (= "V" (CharAt var34 496)))
(assert (= "z" (CharAt var49 537)))
(assert (= "$" (CharAt var56 798)))
(assert (= "4" (CharAt var44 178)))
(assert (= "6" (CharAt var28 51)))
(assert (= "H" (CharAt var4 737)))
(assert (= "]" (CharAt var1 952)))
(assert (= "l" (CharAt var51 573)))
(assert (= "t" (CharAt var12 65)))
(assert (= "O" (CharAt var47 756)))
(assert (= "2" (CharAt var0 573)))
(assert (= "$" (CharAt var35 234)))
(assert (= "B" (CharAt var31 247)))
(assert (= "<" (CharAt var41 730)))
(assert (= "\"" (CharAt var27 757)))
(assert (= "~" (CharAt var20 862)))
(assert (= "t" (CharAt var15 506)))
(assert (= "5" (CharAt var23 96)))
(assert (= "^" (CharAt var8 203)))
(assert (= "#" (CharAt var47 505)))
(assert (= "@" (CharAt var17 627)))
(assert (= "@" (CharAt var33 646)))
(assert (= "/" (CharAt var50 765)))
(assert (= "~" (CharAt var22 115)))
(assert (= "G" (CharAt var60 406)))
(assert (= "X" (CharAt var29 781)))
(assert (= "9" (CharAt var30 710)))
(assert (= "O" (CharAt var24 627)))
(assert (= "#" (CharAt var39 46)))
(assert (= "3" (CharAt var0 477)))
(assert (= "C" (CharAt var47 992)))
(assert (= "$" (CharAt var53 916)))
(assert (= "Y" (CharAt var12 833)))
(assert (= "k" (CharAt var24 341)))
(assert (= "|" (CharAt var36 460)))
(assert (= "s" (CharAt var8 566)))
(assert (= "6" (CharAt var46 611)))
(assert (= "$" (CharAt var54 58)))
(assert (= "S" (CharAt var52 54)))
(assert (= "4" (CharAt var59 535)))
(assert (= "S" (CharAt var23 898)))
(assert (= "[" (CharAt var41 296)))
(assert (= "^" (CharAt var22 878)))
(assert (= "," (CharAt var0 966)))
(assert (= "\"" (CharAt var43 250)))
(assert (= "7" (CharAt var0 637)))
(assert (= "}" (CharAt var58 695)))
(assert (= "4" (CharAt var50 420)))
(assert (= "h" (CharAt var60 581)))
(assert (= "l" (CharAt var17 456)))
(assert (= "=" (CharAt var40 479)))
(assert (= "A" (CharAt var55 35)))
(assert (= "0" (CharAt var57 749)))
(assert (= "w" (CharAt var39 76)))
(assert (= "N" (CharAt var20 686)))
(assert (= "-" (CharAt var20 159)))
(assert (= "w" (CharAt var60 608)))
(assert (= "g" (CharAt var9 482)))
(assert (= "H" (CharAt var59 147)))
(assert (= "`" (CharAt var55 445)))
(assert (= "m" (CharAt var2 633)))
(assert (= "?" (CharAt var35 833)))
(assert (= "f" (CharAt var28 640)))
(assert (= "H" (CharAt var58 564)))
(assert (= "W" (CharAt var30 763)))
(assert (= "#" (CharAt var7 373)))
(assert (= "(" (CharAt var29 542)))
(assert (= "L" (CharAt var37 465)))
(assert (= "8" (CharAt var27 707)))
(assert (= "7" (CharAt var1 863)))
(assert (= "*" (CharAt var55 709)))
(assert (= "&" (CharAt var3 556)))
(assert (= "W" (CharAt var49 674)))
(assert (= "I" (CharAt var40 801)))
(assert (= "%" (CharAt var27 793)))
(assert (= "]" (CharAt var35 94)))
(assert (= "*" (CharAt var14 701)))
(assert (= "Z" (CharAt var49 497)))
(assert (= "*" (CharAt var44 537)))
(assert (= "b" (CharAt var38 531)))
(assert (= ">" (CharAt var10 726)))
(assert (= "1" (CharAt var21 613)))
(assert (= "." (CharAt var30 487)))
(assert (= "n" (CharAt var12 159)))
(assert (= "U" (CharAt var34 946)))
(assert (= "\"" (CharAt var52 865)))
(assert (= "F" (CharAt var29 56)))
(assert (= "'" (CharAt var28 97)))
(assert (= "V" (CharAt var58 38)))
(assert (= "r" (CharAt var1 85)))
(assert (= "6" (CharAt var10 837)))
(assert (= "c" (CharAt var19 905)))
(assert (= "6" (CharAt var23 376)))
(assert (= "S" (CharAt var11 654)))
(assert (= "&" (CharAt var28 326)))
(assert (= "f" (CharAt var43 390)))
(assert (= "c" (CharAt var33 398)))
(assert (= "o" (CharAt var17 136)))
(assert (= "#" (CharAt var23 32)))
(assert (= "|" (CharAt var26 678)))
(assert (= "_" (CharAt var52 634)))
(assert (= "@" (CharAt var58 181)))
(assert (= "p" (CharAt var47 804)))
(assert (= "t" (CharAt var23 639)))
(assert (= "!" (CharAt var24 228)))
(assert (= "u" (CharAt var52 555)))
(assert (= "6" (CharAt var28 806)))
(assert (= "t" (CharAt var33 615)))
(assert (= "f" (CharAt var50 728)))
(assert (= "q" (CharAt var24 7)))
(assert (= "D" (CharAt var23 689)))
(assert (= "8" (CharAt var0 81)))
(assert (= "r" (CharAt var43 155)))
(assert (= "^" (CharAt var27 18)))
(assert (= "h" (CharAt var27 311)))
(assert (= "f" (CharAt var27 955)))
(assert (= "T" (CharAt var23 495)))
(assert (= "_" (CharAt var10 766)))
(assert (= "n" (CharAt var37 931)))
(assert (= ">" (CharAt var21 415)))
(assert (= "B" (CharAt var3 596)))
(assert (= "l" (CharAt var36 359)))
(assert (= "+" (CharAt var38 830)))
(assert (= "P" (CharAt var55 121)))
(assert (= "2" (CharAt var23 465)))
(assert (= "E" (CharAt var6 595)))
(assert (= "$" (CharAt var20 630)))
(assert (= "]" (CharAt var26 266)))
(assert (= "q" (CharAt var32 131)))
(assert (= ")" (CharAt var3 79)))
(assert (= "`" (CharAt var41 151)))
(assert (= "|" (CharAt var22 766)))
(assert (= "s" (CharAt var52 631)))
(assert (= "?" (CharAt var13 61)))
(assert (= "m" (CharAt var13 870)))
(assert (= "<" (CharAt var0 272)))
(assert (= "}" (CharAt var23 945)))
(assert (= "T" (CharAt var28 260)))
(assert (= "M" (CharAt var15 127)))
(assert (= "u" (CharAt var37 842)))
(assert (= "n" (CharAt var36 661)))
(assert (= ";" (CharAt var30 562)))
(assert (= "!" (CharAt var26 854)))
(assert (= "L" (CharAt var14 621)))
(assert (= "q" (CharAt var0 914)))
(assert (= "r" (CharAt var7 997)))
(assert (= ")" (CharAt var0 988)))
(assert (= "<" (CharAt var56 434)))
(assert (= "\\" (CharAt var15 234)))
(assert (= "," (CharAt var3 262)))
(assert (= "i" (CharAt var5 82)))
(assert (= "y" (CharAt var3 17)))
(assert (= "\"" (CharAt var6 544)))
(assert (= "h" (CharAt var37 1)))
(assert (= "\"" (CharAt var60 471)))
(assert (= "d" (CharAt var0 357)))
(assert (= "+" (CharAt var35 377)))
(assert (= "F" (CharAt var5 273)))
(assert (= "\"" (CharAt var35 617)))
(assert (= "E" (CharAt var46 601)))
(assert (= "i" (CharAt var52 448)))
(assert (= "(" (CharAt var16 735)))
(assert (= "8" (CharAt var57 986)))
(assert (= "*" (CharAt var4 583)))
(assert (= "U" (CharAt var56 689)))
(assert (= "3" (CharAt var53 231)))
(assert (= "x" (CharAt var56 660)))
(assert (= "?" (CharAt var21 362)))
(assert (= "1" (CharAt var20 933)))
(assert (= ";" (CharAt var20 559)))
(assert (= "H" (CharAt var5 442)))
(assert (= "H" (CharAt var8 658)))
(assert (= "6" (CharAt var55 885)))
(assert (= "4" (CharAt var60 286)))
(assert (= "Z" (CharAt var11 295)))
(assert (= "x" (CharAt var44 678)))
(assert (= "'" (CharAt var48 422)))
(assert (= "2" (CharAt var43 299)))
(assert (= ":" (CharAt var49 470)))
(assert (= "c" (CharAt var47 586)))
(assert (= "A" (CharAt var6 396)))
(assert (= "B" (CharAt var5 201)))
(assert (= "c" (CharAt var39 515)))
(assert (= "s" (CharAt var47 695)))
(assert (= "q" (CharAt var59 970)))
(assert (= "y" (CharAt var49 552)))
(assert (= "!" (CharAt var49 809)))
(assert (= "7" (CharAt var17 351)))
(assert (= "2" (CharAt var32 987)))
(assert (= "D" (CharAt var18 468)))
(assert (= "<" (CharAt var38 98)))
(assert (= "L" (CharAt var47 136)))
(assert (= "=" (CharAt var53 711)))
(assert (= "=" (CharAt var47 386)))
(assert (= "(" (CharAt var42 993)))
(assert (= "E" (CharAt var6 506)))
(assert (= "Y" (CharAt var5 153)))
(assert (= "F" (CharAt var2 101)))
(assert (= "<" (CharAt var10 905)))
(assert (= "1" (CharAt var44 211)))
(assert (= "$" (CharAt var32 944)))
(assert (= "B" (CharAt var46 448)))
(assert (= "|" (CharAt var22 822)))
(assert (= "+" (CharAt var4 699)))
(assert (= "7" (CharAt var18 515)))
(assert (= "G" (CharAt var9 291)))
(assert (= "x" (CharAt var8 415)))
(assert (= "n" (CharAt var50 898)))
(assert (= "|" (CharAt var38 737)))
(assert (= "," (CharAt var58 450)))
(assert (= "," (CharAt var33 586)))
(assert (= "(" (CharAt var44 894)))
(assert (= "'" (CharAt var20 591)))
(assert (= "M" (CharAt var18 792)))
(assert (= "'" (CharAt var18 755)))
(assert (= "x" (CharAt var2 409)))
(assert (= "{" (CharAt var45 132)))
(assert (= "U" (CharAt var25 895)))
(assert (= "[" (CharAt var22 308)))
(assert (= "?" (CharAt var59 420)))
(assert (= "'" (CharAt var40 324)))
(assert (= "D" (CharAt var14 704)))
(assert (= "#" (CharAt var25 129)))
(assert (= ";" (CharAt var35 963)))
(assert (= "I" (CharAt var32 685)))
(assert (= "_" (CharAt var58 305)))
(assert (= "-" (CharAt var0 688)))
(assert (= "*" (CharAt var5 440)))
(assert (= "E" (CharAt var20 272)))
(assert (= "c" (CharAt var40 814)))
(assert (= "^" (CharAt var14 223)))
(assert (= "X" (CharAt var28 241)))
(assert (= "e" (CharAt var31 588)))
(assert (= "j" (CharAt var26 834)))
(assert (= "&" (CharAt var12 370)))
(assert (= "|" (CharAt var35 745)))
(assert (= "p" (CharAt var25 667)))
(assert (= "7" (CharAt var44 209)))
(assert (= "Q" (CharAt var28 492)))
(assert (= "C" (CharAt var29 696)))
(assert (= "<" (CharAt var21 807)))
(assert (= "x" (CharAt var13 112)))
(assert (= "G" (CharAt var2 546)))
(assert (= "E" (CharAt var2 704)))
(assert (= "z" (CharAt var3 158)))
(assert (= "H" (CharAt var33 260)))
(assert (= "I" (CharAt var44 989)))
(assert (= "i" (CharAt var36 944)))
(assert (= "o" (CharAt var51 699)))
(assert (= "C" (CharAt var44 252)))
(assert (= "n" (CharAt var32 744)))
(assert (= "%" (CharAt var41 436)))
(assert (= "X" (CharAt var2 791)))
(assert (= "B" (CharAt var19 343)))
(assert (= "w" (CharAt var12 762)))
(assert (= "M" (CharAt var8 419)))
(assert (= "~" (CharAt var49 681)))
(assert (= "N" (CharAt var46 807)))
(assert (= "9" (CharAt var53 139)))
(assert (= "=" (CharAt var2 626)))
(assert (= "H" (CharAt var48 661)))
(assert (= "4" (CharAt var8 871)))
(assert (= "," (CharAt var12 685)))
(assert (= "K" (CharAt var51 523)))
(assert (= "y" (CharAt var54 563)))
(assert (= "S" (CharAt var46 766)))
(assert (= "P" (CharAt var35 576)))
(assert (= "'" (CharAt var6 532)))
(assert (= "0" (CharAt var0 677)))
(assert (= "d" (CharAt var50 19)))
(assert (= ":" (CharAt var60 610)))
(assert (= "5" (CharAt var45 975)))
(assert (= "W" (CharAt var59 835)))
(assert (= "B" (CharAt var23 705)))
(assert (= "C" (CharAt var23 449)))
(assert (= "_" (CharAt var12 425)))
(assert (= "H" (CharAt var52 797)))
(assert (= "[" (CharAt var42 447)))
(assert (= "u" (CharAt var30 271)))
(assert (= "A" (CharAt var24 405)))
(assert (= "}" (CharAt var30 340)))
(assert (= "F" (CharAt var38 529)))
(assert (= "6" (CharAt var10 871)))
(assert (= "l" (CharAt var0 248)))
(assert (= "," (CharAt var37 639)))
(assert (= "w" (CharAt var2 271)))
(assert (= "<" (CharAt var4 195)))
(assert (= "9" (CharAt var14 13)))
(assert (= "@" (CharAt var6 350)))
(assert (= "," (CharAt var27 201)))
(assert (= "V" (CharAt var55 79)))
(assert (= "+" (CharAt var38 200)))
(assert (= "G" (CharAt var16 512)))
(assert (= "O" (CharAt var0 577)))
(assert (= "j" (CharAt var42 204)))
(assert (= "t" (CharAt var55 663)))
(assert (= "r" (CharAt var24 306)))
(assert (= "C" (CharAt var54 847)))
(assert (= "e" (CharAt var24 883)))
(assert (= "Y" (CharAt var34 789)))
(assert (= "4" (CharAt var5 625)))
(assert (= "k" (CharAt var55 116)))
(check-sat)
(get-model)